Version identifier: 22.1.0.0 | 2022-03-09 | 1a383f8ce
CPXPARAM_Threads                                 1
CPXPARAM_MIP_Strategy_VariableSelect             3
CPXPARAM_TimeLimit                               599.99998524700004
1 of 1 MIP starts provided solutions.
MIP start 'm1' defined initial solution with objective 1.0000.
Tried aggregator 1 time.
MIP Presolve eliminated 8 rows and 0 columns.
MIP Presolve modified 4 coefficients.
Reduced MIP has 2117 rows, 7500 columns, and 94939 nonzeros.
Reduced MIP has 7500 binaries, 0 generals, 0 SOSs, and 0 indicators.
Presolve time = 0.06 sec. (53.08 ticks)
Probing time = 0.00 sec. (4.32 ticks)
Tried aggregator 1 time.
Detecting symmetries...
MIP Presolve eliminated 4 rows and 0 columns.
Reduced MIP has 2113 rows, 7500 columns, and 94770 nonzeros.
Reduced MIP has 7500 binaries, 0 generals, 0 SOSs, and 0 indicators.
Presolve time = 0.06 sec. (50.69 ticks)
Probing time = 0.00 sec. (4.32 ticks)
Clique table members: 898.
MIP emphasis: balance optimality and feasibility.
MIP search method: dynamic search.
Parallel mode: none, using 1 thread.
Root relaxation solution time = 1.63 sec. (1689.46 ticks)

        Nodes                                         Cuts/
   Node  Left     Objective  IInf  Best Integer    Best Bound    ItCnt     Gap

*     0+    0                            1.0000     7500.0000              --- 
      0     0      300.0000  1265        1.0000      300.0000     5330     --- 
      0     0      300.0000  1354        1.0000      Cuts: 14    12326     --- 
      0     0      300.0000   757        1.0000      Cuts: 30    18240     --- 
      0     0      300.0000   316        1.0000    Cliques: 3    18714     --- 
*     0+    0                          287.0000      300.0000             4.53%
      0     0        cutoff            287.0000      300.0000    18714    4.53%
      0     0      300.0000   390      287.0000      Cuts: 34    23895    4.53%
*     0+    0                          288.0000      300.0000             4.17%
*     0+    0                          292.0000      300.0000             2.74%
      0     0        cutoff            292.0000      300.0000    23895    2.74%
Detecting symmetries...
      0     2      300.0000   264      292.0000      300.0000    23895    2.74%
Elapsed time = 73.88 sec. (80563.27 ticks, tree = 0.01 MB, solutions = 4)
      1     3      300.0000   267      292.0000      300.0000    33719    2.74%
      2     4      300.0000   763      292.0000      300.0000    39952    2.74%
      3     5      300.0000   506      292.0000      300.0000    45325    2.74%
      4     6      300.0000   294      292.0000      300.0000    50608    2.74%
      5     7      300.0000   318      292.0000      300.0000    50859    2.74%
      6     8      300.0000  1416      292.0000      300.0000    65062    2.74%
      7     9      300.0000   536      292.0000      300.0000    76607    2.74%
      8    10      300.0000   329      292.0000      300.0000    77927    2.74%
      9    11      300.0000   330      292.0000      300.0000    77996    2.74%
     11    13      300.0000   300      292.0000      300.0000    91873    2.74%
Elapsed time = 100.24 sec. (109006.26 ticks, tree = 0.03 MB, solutions = 4)
     14    16      300.0000   280      292.0000      300.0000    92539    2.74%
     16    18      300.0000   682      292.0000      300.0000   103397    2.74%
     19    21      300.0000   238      292.0000      300.0000   104344    2.74%
     21    23      300.0000   234      292.0000      300.0000   114118    2.74%
     23    25      300.0000   254      292.0000      300.0000   124476    2.74%
     24    26      300.0000  1266      292.0000      300.0000   134860    2.74%
     25    27      300.0000   251      292.0000      300.0000   138861    2.74%
     26    28      300.0000  1239      292.0000      300.0000   146079    2.74%
     27    29      300.0000  1333      292.0000      300.0000   158746    2.74%
     29    31      300.0000  1120      292.0000      300.0000   161181    2.74%
Elapsed time = 119.18 sec. (128737.07 ticks, tree = 0.08 MB, solutions = 4)
     30    32      300.0000   520      292.0000      300.0000   166920    2.74%
     32    34      299.9832  1227      292.0000      300.0000   190565    2.74%
     33    35      300.0000   820      292.0000      300.0000   193426    2.74%
     35    37      300.0000  1054      292.0000      300.0000   206082    2.74%
     36    38      300.0000   810      292.0000      300.0000   210256    2.74%
     38    40      300.0000   439      292.0000      300.0000   218469    2.74%
     39    41      300.0000   936      292.0000      300.0000   236207    2.74%
     40    42      300.0000   509      292.0000      300.0000   241846    2.74%
     41    43      300.0000   568      292.0000      300.0000   248290    2.74%
     42    44      300.0000   539      292.0000      300.0000   251631    2.74%
Elapsed time = 157.91 sec. (168274.38 ticks, tree = 0.12 MB, solutions = 4)
     43    45      300.0000  1019      292.0000      300.0000   265227    2.74%
     45    47      300.0000   570      292.0000      300.0000   270869    2.74%
     46    48      300.0000   631      292.0000      300.0000   283189    2.74%
     48    50      300.0000   635      292.0000      300.0000   289084    2.74%
     50    52      300.0000   507      292.0000      300.0000   297320    2.74%
     51    53      300.0000   529      292.0000      300.0000   301465    2.74%
     52    54      300.0000   902      292.0000      300.0000   310982    2.74%
     53    55      300.0000   904      292.0000      300.0000   323185    2.74%
     54    56      300.0000   524      292.0000      300.0000   325496    2.74%
     55    57      300.0000   559      292.0000      300.0000   331412    2.74%
Elapsed time = 180.46 sec. (191177.08 ticks, tree = 0.34 MB, solutions = 4)
     57    59      300.0000   527      292.0000      300.0000   332834    2.74%
     58    60      300.0000   471      292.0000      300.0000   341147    2.74%
     59    61      300.0000   752      292.0000      300.0000   359989    2.74%
     61    63      300.0000   463      292.0000      300.0000   361292    2.74%
     63    65      300.0000   592      292.0000      300.0000   366118    2.74%
     64    66      300.0000   514      292.0000      300.0000   369820    2.74%
     65    67      300.0000   548      292.0000      300.0000   377304    2.74%
     66    68      300.0000   532      292.0000      300.0000   380956    2.74%
     67    69      300.0000   608      292.0000      300.0000   402686    2.74%
     68    70      300.0000   517      292.0000      300.0000   407330    2.74%
Elapsed time = 203.95 sec. (215015.68 ticks, tree = 0.55 MB, solutions = 4)
     70    72      300.0000   460      292.0000      300.0000   408983    2.74%
     71    73      300.0000   428      292.0000      300.0000   412460    2.74%
     72    74      300.0000   423      292.0000      300.0000   415336    2.74%
     74    76      300.0000   450      292.0000      300.0000   418518    2.74%
     75    77      300.0000   471      292.0000      300.0000   421651    2.74%
     77    79      300.0000   603      292.0000      300.0000   426460    2.74%
     78    80      300.0000   463      292.0000      300.0000   430201    2.74%
     79    81      300.0000   417      292.0000      300.0000   433254    2.74%
     80    82      300.0000   409      292.0000      300.0000   435780    2.74%
     81    83      300.0000   374      292.0000      300.0000   441174    2.74%
Elapsed time = 221.62 sec. (232666.92 ticks, tree = 0.77 MB, solutions = 4)
     82    84      300.0000   393      292.0000      300.0000   442950    2.74%
     83    85      300.0000   347      292.0000      300.0000   445662    2.74%
     84    86      300.0000   482      292.0000      300.0000   450767    2.74%
     85    87      300.0000   314      292.0000      300.0000   454721    2.74%
     86    88      300.0000   325      292.0000      300.0000   458362    2.74%
     87    89      300.0000   362      292.0000      300.0000   461612    2.74%
     88    90      300.0000   311      292.0000      300.0000   467048    2.74%
     89    91      300.0000   315      292.0000      300.0000   471088    2.74%
     90    92      300.0000   377      292.0000      300.0000   475656    2.74%
     91    93      300.0000   574      292.0000      300.0000   480010    2.74%
Elapsed time = 241.91 sec. (252672.33 ticks, tree = 0.88 MB, solutions = 4)
     92    94      300.0000   324      292.0000      300.0000   481697    2.74%
     93    95      300.0000   412      292.0000      300.0000   485617    2.74%
     94    96      300.0000   335      292.0000      300.0000   490600    2.74%
     95    97      300.0000   586      292.0000      300.0000   495156    2.74%
     96    98      300.0000   505      292.0000      300.0000   500022    2.74%
     97    99      300.0000   495      292.0000      300.0000   507314    2.74%
     98   100      300.0000   372      292.0000      300.0000   514793    2.74%
     99   101      300.0000   442      292.0000      300.0000   518711    2.74%
    100   102      300.0000   407      292.0000      300.0000   522111    2.74%
    101   103      300.0000   301      292.0000      300.0000   526638    2.74%
Elapsed time = 260.42 sec. (271163.09 ticks, tree = 1.02 MB, solutions = 4)
    102   104      300.0000   399      292.0000      300.0000   530600    2.74%
    103   105      300.0000   417      292.0000      300.0000   534407    2.74%
    105   107      299.9946   635      292.0000      300.0000   544568    2.74%
    106   108      300.0000   343      292.0000      300.0000   550452    2.74%
    107   109      300.0000   250      292.0000      300.0000   556829    2.74%
    108   110      300.0000   254      292.0000      300.0000   561551    2.74%
    109   111      300.0000   241      292.0000      300.0000   566874    2.74%
    110   112      299.9622   603      292.0000      300.0000   576559    2.74%
    111   113      300.0000   211      292.0000      300.0000   583262    2.74%
    112   114      300.0000   252      292.0000      300.0000   592112    2.74%
Elapsed time = 284.03 sec. (294595.54 ticks, tree = 1.16 MB, solutions = 4)
    113   115      300.0000   175      292.0000      300.0000   595015    2.74%
    114   116      299.9565   466      292.0000      300.0000   604776    2.74%
    115   117      300.0000   172      292.0000      300.0000   609523    2.74%
    116   118      300.0000   174      292.0000      300.0000   611269    2.74%
    117   119      299.9594   606      292.0000      300.0000   622919    2.74%
    118   120      299.9565   404      292.0000      300.0000   632820    2.74%
    120   122      299.9612   632      292.0000      300.0000   644676    2.74%
    121   123      300.0000   170      292.0000      300.0000   647480    2.74%
    122   124      300.0000   177      292.0000      300.0000   650570    2.74%
    123   125      299.9605   647      292.0000      300.0000   663909    2.74%
Elapsed time = 315.35 sec. (325119.65 ticks, tree = 1.23 MB, solutions = 4)
    124   126      299.9612   633      292.0000      300.0000   676141    2.74%
    127   129      300.0000   178      292.0000      300.0000   689874    2.74%
    129   131      299.9612   536      292.0000      300.0000   702188    2.74%
    132   134      300.0000   203      292.0000      300.0000   713616    2.74%
    134   136      299.9933   646      292.0000      300.0000   735916    2.74%
    136   138      299.9574   541      292.0000      300.0000   747806    2.74%
    138   140      299.9642   551      292.0000      300.0000   767538    2.74%
    141   143      299.9565   403      292.0000      300.0000   782096    2.74%
    143   145      299.9594   698      292.0000      300.0000   795319    2.74%
    145   147      299.9552   533      292.0000      300.0000   808713    2.74%
Elapsed time = 364.32 sec. (373445.89 ticks, tree = 1.40 MB, solutions = 4)
    149   151      299.9552   591      292.0000      300.0000   827954    2.74%
    151   153      300.0000   166      292.0000      300.0000   848917    2.74%
    158   160      300.0000   153      292.0000      300.0000   871776    2.74%
    160   162      300.0000   141      292.0000      300.0000   892490    2.74%
    164   166      300.0000    95      292.0000      300.0000   915847    2.74%
    166   168      300.0000    94      292.0000      300.0000   935166    2.74%
    169   171      300.0000   251      292.0000      300.0000   949841    2.74%
    172   174      300.0000   177      292.0000      300.0000   961919    2.74%
    175   177      300.0000   297      292.0000      300.0000   977606    2.74%
    178   180      300.0000   171      292.0000      300.0000   995639    2.74%
Elapsed time = 421.69 sec. (428503.75 ticks, tree = 1.92 MB, solutions = 4)
    181   183      299.9397   543      292.0000      300.0000  1034781    2.74%
    184   186      300.0000   210      292.0000      300.0000  1048359    2.74%
    186   188      299.9425   573      292.0000      300.0000  1068815    2.74%
    188   190      300.0000   221      292.0000      300.0000  1082945    2.74%
    190   192      300.0000   213      292.0000      300.0000  1098648    2.74%
    192   194      300.0000   183      292.0000      300.0000  1111916    2.74%
    194   196      300.0000   209      292.0000      300.0000  1126324    2.74%
    197   199      300.0000   259      292.0000      300.0000  1138392    2.74%
    200   202      300.0000   425      292.0000      300.0000  1157285    2.74%
    203   205      299.9409   490      292.0000      300.0000  1175117    2.74%
Elapsed time = 475.02 sec. (479832.02 ticks, tree = 2.21 MB, solutions = 4)
    205   207      299.9416   573      292.0000      300.0000  1192219    2.74%
    208   210      300.0000   322      292.0000      300.0000  1209174    2.74%
    211   213      300.0000   344      292.0000      300.0000  1227556    2.74%
    213   215      300.0000   336      292.0000      300.0000  1242874    2.74%
    215   217      299.9959   548      292.0000      300.0000  1257980    2.74%
    219   221      298.9091   476      292.0000      300.0000  1271692    2.74%
    225   227      299.8748   551      292.0000      300.0000  1280869    2.74%
    231   233      299.8520   473      292.0000      300.0000  1289838    2.74%
    238   240      298.8000   441      292.0000      300.0000  1299732    2.74%
    240   241      299.9387   527      292.0000      300.0000  1302683    2.74%
Elapsed time = 523.06 sec. (527125.82 ticks, tree = 2.46 MB, solutions = 4)
    246   247      299.9161   615      292.0000      300.0000  1312918    2.74%
    252   253      298.8000   542      292.0000      300.0000  1324858    2.74%
    257   258      299.9031   566      292.0000      300.0000  1334557    2.74%
    263   262      299.8982   570      292.0000      300.0000  1339146    2.74%
    269   268      299.8891   613      292.0000      300.0000  1347552    2.74%
    275   274      299.8708   537      292.0000      300.0000  1355998    2.74%
    280   279      299.8489   513      292.0000      300.0000  1366535    2.74%
    285   284      298.9091   591      292.0000      300.0000  1376864    2.74%
    292   291      299.8104   483      292.0000      300.0000  1385795    2.74%
    299   298      299.7843   454      292.0000      300.0000  1393568    2.74%
Elapsed time = 563.18 sec. (567984.03 ticks, tree = 2.64 MB, solutions = 4)
Starting limited solution polishing.
*   300+  297                          294.0000      300.0000             2.04%
    300   299      299.7783   435      294.0000      300.0000  1394778    2.04%
    306   305      298.8750   291      294.0000      300.0000  1404772    2.04%
    312   309    infeasible            294.0000      300.0000  1414869    2.04%
    318   313    infeasible            294.0000      300.0000  1427338    2.04%
    325   320      299.7468   411      294.0000      300.0000  1435598    2.04%
    330   324      299.7463   416      294.0000      300.0000  1447283    2.04%
    337   331      299.7424   477      294.0000      300.0000  1454836    2.04%
    342   335      298.7778   367      294.0000      300.0000  1466337    2.04%

Clique cuts applied:  30
Zero-half cuts applied:  14
Lift and project cuts applied:  1
Gomory fractional cuts applied:  1

Root node processing (before b&c):
  Real time             =   73.83 sec. (80509.80 ticks)
Sequential b&c:
  Real time             =  526.17 sec. (523086.46 ticks)
                          ------------
Total (root+branch&cut) =  600.00 sec. (603596.27 ticks)
Primal:	294
Dual:	300
Status:	Feasible
Time:	599.92
Sequence:
	10
	5
	24
	15
	10
	21
	24
	1
	17
	6
	10
	15
	12
	3
	0
	6
	12
	8
	11
	7
	0
	3
	11
	17
	14
	6
	24
	21
	9
	15
	20
	21
	24
	21
	24
	21
	23
	22
	20
	22
	20
	5
	16
	5
	23
	2
	8
	14
	8
	12
	19
	0
	19
	12
	8
	12
	19
	0
	3
	0
	3
	0
	3
	18
	19
	18
	19
	18
	3
	0
	3
	0
	3
	0
	3
	5
	16
	1
	10
	22
	20
	1
	16
	21
	23
	15
	20
	21
	24
	1
	4
	2
	20
	15
	9
	5
	16
	6
	12
	17
	1
	20
	2
	10
	1
	16
	5
	10
	15
	23
	2
	10
	1
	16
	21
	9
	15
	23
	2
	10
	1
	24
	22
	10
	6
	24
	5
	10
	15
	20
	2
	9
	1
	24
	21
	10
	15
	23
	22
	10
	6
	8
	12
	17
	13
	19
	18
	4
	13
	8
	14
	17
	11
	19
	18
	7
	11
	8
	14
	17
	13
	19
	18
	4
	13
	8
	14
	17
	11
	19
	18
	7
	11
	8
	0
	4
	13
	15
	9
	21
	24
	6
	12
	17
	13
	3
	0
	5
	20
	15
	4
	14
	8
	13
	4
	18
	6
	23
	2
	9
	1
	16
	21
	9
	15
	23
	21
	0
	8
	11
	4
	0
	19
	11
	17
	18
	19
	13
	17
	12
	1
	16
	21
	17
	11
	3
	0
	7
	11
	15
	4
	21
	16
	15
	9
	21
	24
	6
	9
	22
	20
	15
	7
	21
	24
	1
	4
	2
	20
	15
	4
	18
	19
	13
	17
	18
	1
	20
	2
	9
	15
	20
	2
	9
	15
	13
	4
	0
	3
	13
	17
	14
	8
	11
	7
	18
	19
	11
	17
	14
	8
	13
	4
	18
	6
	11
	2
	9
	1
	16
	5
	0
	15
	23
